multiobj/instances/uniform/Ter.5.4.0.80.3.in
5 4
0 1 862 105 5 
1 0 100 377 177 
862 100 0 804 728 
105 377 804 0 463 
5 177 728 463 0 
0 765 937 61 698 
765 0 364 45 375 
937 364 0 306 804 
61 45 306 0 650 
698 375 804 650 0 
0 952 881 96 909 
952 0 407 282 277 
881 407 0 385 828 
96 282 385 0 614 
909 277 828 614 0 
0 882 891 187 478 
882 0 458 188 458 
891 458 0 374 796 
187 188 374 0 701 
478 458 796 701 0 
0 864 975 42 821 
864 0 269 154 339 
975 269 0 400 667 
42 154 400 0 774 
821 339 667 774 0 
