multiobj/solutions/Ter.5.4.0.80.3.out
1 4
0 3 4 2 1 
1828906 2391720 2555746 1990890 
